r = [
0,15,64,104,5,45,109,34,136,66,23,0
];
p = [
0,17,20,15,11,19,28,9,7,13,14,0
];
e = [
0,8,5,7,1,20,13,6,14,10,7,0
];
d = [
0,33,86,125,24,64,137,44,152,81,37,153
];
d_bar = [
0,35,88,127,25,66,140,45,153,82,38,153
];
w = [
0,4,2.5,3.5,1,10,4.333333333,6,14,10,7,0
];
